(set-logic ALL)
(declare-fun var0 () String)
(assert (str.in_re var0 (re.++ (re.* (re.* (str.to_re "000"))) (re.++ (re.union (re.+ (str.to_re "1")) (re.+ (str.to_re "222"))) (re.++ (re.+ (re.* (str.to_re "3"))) (re.++ (re.+ (re.union (str.to_re "444") (str.to_re "5"))) (re.++ (re.+ (re.* (str.to_re "6"))) (re.++ (re.* (re.* (str.to_re "77"))) (re.++ (re.+ (re.* (str.to_re "888"))) (re.++ (re.+ (re.+ (str.to_re "9"))) (re.++ (re.* (re.union (str.to_re "a") (str.to_re "bb"))) (re.++ (re.* (re.union (str.to_re "c") (str.to_re "dd"))) (re.++ (re.* (re.+ (str.to_re "e"))) (re.++ (re.+ (re.union (str.to_re "f") (str.to_re "g"))) (re.++ (re.* (re.* (str.to_re "h"))) (re.++ (re.union (re.+ (str.to_re "iii")) (re.+ (str.to_re "j"))) (re.++ (re.* (re.* (str.to_re "kk"))) (re.++ (re.+ (re.union (str.to_re "l") (str.to_re "m"))) (re.++ (re.+ (re.union (str.to_re "nn") (str.to_re "o"))) (re.++ (re.union (re.union (str.to_re "pp") (str.to_re "qqq")) (re.union (str.to_re "rrr") (str.to_re "sss"))) (re.++ (re.* (re.union (str.to_re "t") (str.to_re "uu"))) (re.++ (re.union (re.+ (str.to_re "vvv")) (re.+ (str.to_re "www"))) (re.++ (re.+ (re.* (str.to_re "x"))) (re.++ (re.union (re.+ (str.to_re "y")) (re.+ (str.to_re "zz"))) (re.++ (re.+ (re.+ (str.to_re "AA"))) (re.++ (re.* (re.union (str.to_re "BB") (str.to_re "C"))) (re.++ (re.+ (re.union (str.to_re "D") (str.to_re "EE"))) (re.++ (re.+ (re.union (str.to_re "FF") (str.to_re "GG"))) (re.++ (re.union (re.union (str.to_re "HH") (str.to_re "I")) (re.union (str.to_re "JJJ") (str.to_re "KK"))) (re.++ (re.+ (re.union (str.to_re "LL") (str.to_re "MM"))) (re.+ (re.union (str.to_re "NNN") (str.to_re "OO")))))))))))))))))))))))))))))))))
(check-sat)